NAME          ClpDefau
ROWS
 N  OBJROW
 L  R_228_0
 L  R_228_1
 L  R_228_2
 L  R_228_3
 L  R_228_4
 L  R_228_5
 L  R_228_6
 L  R_228_7
COLUMNS
    x_0       OBJROW     -1.           R_228_1   57.         
    x_0       R_228_2   5.             R_228_4   41.         
    x_0       R_228_6   68.            R_228_7   23.         
    x_1       OBJROW     -2.           R_228_0   4.          
    x_1       R_228_1   23.            R_228_2   66.         
    x_1       R_228_3   66.            R_228_4   24.         
    x_1       R_228_6   54.            R_228_7   98.         
    x_2       OBJROW     -2.           R_228_0   76.         
    x_2       R_228_1   58.            R_228_2   97.         
    x_2       R_228_3   95.            R_228_4   68.         
    x_2       R_228_5   36.            R_228_7   46.         
    x_3       OBJROW     -6.           R_228_0   59.         
    x_3       R_228_2   73.            R_228_3   72.         
    x_3       R_228_4   63.            R_228_5   42.         
    x_4       OBJROW     -3.           R_228_1   99.         
    x_4       R_228_3   91.            R_228_5   65.         
    x_4       R_228_6   76.            R_228_7   94.         
    x_5       OBJROW     -5.           R_228_0   66.         
    x_5       R_228_1   88.            R_228_2   10.         
    x_5       R_228_3   44.            R_228_4   25.         
    x_5       R_228_6   74.            R_228_7   35.         
    x_6       OBJROW     -5.           R_228_0   88.         
    x_6       R_228_2   67.            R_228_3   35.         
    x_6       R_228_4   27.            R_228_6   92.         
    x_6       R_228_7   8.          
    x_7       OBJROW     -10.          R_228_0   23.         
    x_7       R_228_1   4.             R_228_2   9.          
    x_7       R_228_3   94.            R_228_5   17.         
    x_7       R_228_7   24.         
    x_8       OBJROW     -4.           R_228_0   1.          
    x_8       R_228_1   6.             R_228_2   32.         
    x_8       R_228_3   5.             R_228_4   79.         
    x_8       R_228_5   96.            R_228_6   44.         
    x_8       R_228_7   40.         
    x_9       OBJROW     -10.          R_228_0   99.         
    x_9       R_228_1   6.             R_228_3   80.         
    x_9       R_228_4   61.            R_228_6   88.         
    x_9       R_228_7   14.         
    x_10      OBJROW     -1.           R_228_0   17.         
    x_10      R_228_1   100.           R_228_2   66.         
    x_10      R_228_3   44.            R_228_4   78.         
    x_10      R_228_6   90.            R_228_7   18.         
    x_11      OBJROW     -10.          R_228_0   33.         
    x_11      R_228_1   21.            R_228_2   59.         
    x_11      R_228_3   66.            R_228_5   5.          
    x_11      R_228_7   57.         
    x_12      OBJROW     -3.           R_228_0   11.         
    x_12      R_228_1   80.            R_228_2   80.         
    x_12      R_228_3   33.            R_228_4   36.         
    x_12      R_228_5   1.             R_228_6   50.         
    x_12      R_228_7   15.         
    x_13      OBJROW     -7.           R_228_0   12.         
    x_13      R_228_1   13.            R_228_2   97.         
    x_13      R_228_3   28.            R_228_4   86.         
    x_13      R_228_5   40.            R_228_6   49.         
    x_13      R_228_7   98.         
    x_14      OBJROW     -7.           R_228_1   56.         
    x_14      R_228_2   3.             R_228_3   7.          
    x_14      R_228_6   13.            R_228_7   62.         
    x_15      OBJROW     -9.           R_228_0   67.         
    x_15      R_228_2   47.            R_228_3   48.         
    x_15      R_228_4   88.            R_228_5   14.         
    x_15      R_228_6   100.           R_228_7   3.          
RHS
    RHS       R_228_0   847.           R_228_1   755.        
    RHS       R_228_2   655.           R_228_3   745.        
    RHS       R_228_4   803.           R_228_5   764.        
    RHS       R_228_6   758.           R_228_7   693.        
BOUNDS
 UI BOUND     x_0       10.         
 UI BOUND     x_1       10.         
 UI BOUND     x_2       10.         
 UI BOUND     x_3       10.         
 UI BOUND     x_4       10.         
 UI BOUND     x_5       10.         
 UI BOUND     x_6       10.         
 UI BOUND     x_7       10.         
 UI BOUND     x_8       10.         
 UI BOUND     x_9       10.         
 UI BOUND     x_10      10.         
 UI BOUND     x_11      10.         
 UI BOUND     x_12      10.         
 UI BOUND     x_13      10.         
 UI BOUND     x_14      10.         
 UI BOUND     x_15      10.         
ENDATA
